n = 22;
f = 95;
s = 100;
r = 100;
l = 100;

forbidden = [| 2, 2
    | 2, 3
    | 2, 4
    | 3, 2
    | 4, 2
    | 4, 3
    | 4, 4
    | 5, 4
    | 6, 2
    | 6, 3
    | 6, 4
    | 2, 6
    | 2, 7
    | 2, 8
    | 3, 6
    | 4, 6
    | 4, 7
    | 5, 6
    | 6, 6
    | 6, 7
    | 6, 8
    | 2, 10
    | 2, 12
    | 3, 10
    | 3, 11
    | 3, 12
    | 4, 10
    | 4, 12
    | 5, 10
    | 5, 12
    | 6, 10
    | 6, 12
    | 2, 14
    | 2, 15
    | 3, 14
    | 3, 16
    | 4, 14
    | 4, 16
    | 5, 14
    | 5, 16
    | 6, 14
    | 6, 15
    | 8, 2
    | 8, 4
    | 9, 2
    | 9, 3
    | 9, 4
    | 10, 2
    | 10, 4
    | 11, 2
    | 11, 4
    | 12, 2
    | 12, 4
    | 8, 6
    | 8, 8
    | 9, 6
    | 9, 8
    | 10, 6
    | 10, 8
    | 11, 6
    | 11, 8
    | 12, 6
    | 12, 7
    | 12, 8
    | 8, 10
    | 8, 11
    | 9, 10
    | 9, 12
    | 10, 10
    | 10, 12
    | 11, 10
    | 11, 12
    | 12, 10
    | 12, 11
    | 8, 14
    | 8, 15
    | 8, 16
    | 9, 14
    | 10, 14
    | 10, 15
    | 11, 14
    | 12, 14
    | 12, 15
    | 12, 16
    | 8, 18
    | 8, 19
    | 8, 20
    | 9, 18
    | 10, 18
    | 10, 19
    | 10, 20
    | 11, 20
    | 12, 18
    | 12, 19
    | 12, 20
|];